benchmark_instances/dzn_benchmark_instances/benchmark_instance_13-2.dzn
% Input: sequence of points
seq_points = [|1,1
              |2,1
              |3,1
              |10,1
              |11,1
              |2,2
              |4,2
              |9,2
              |10,2
              |11,2
              |12,2
              |1,3
              |6,3
              |7,3
              |9,3
              |10,3
              |12,3
              |2,4
              |6,4
              |9,4
              |10,4
              |11,4
              |1,5
              |3,5
              |5,5
              |7,5
              |8,5
              |11,5
              |1,6
              |3,6
              |4,6
              |5,6
              |6,6
              |7,6
              |8,6
              |9,6
              |5,7
              |6,7
              |7,7
              |10,7
              |3,8
              |4,8
              |5,8
              |6,8
              |9,8
              |10,8
              |2,9
              |3,9
              |4,9
              |5,9
              |6,9
              |7,9
              |1,10
              |2,10
              |3,10
              |4,10
              |5,10
              |6,10
              |9,10
              |11,10
              |1,11
              |3,11
              |6,11
              |7,11
              |11,11
              |12,11
              |11,12
              |12,12
              |2,0
              |3,0
              |4,0
              |13,3
              |13,4
              |13,5
              |11,13
              |13,13
              |0,3
              |0,5
              |0,0
              |0,1
             |];

num_points = 80;
