benchmark_instances/lp_benchmark_instances/benchmark_instance_13-2.lp
% Input: sequence of points
point(1,1).
point(2,1).
point(3,1).
point(10,1).
point(11,1).
point(2,2).
point(4,2).
point(9,2).
point(10,2).
point(11,2).
point(12,2).
point(1,3).
point(6,3).
point(7,3).
point(9,3).
point(10,3).
point(12,3).
point(2,4).
point(6,4).
point(9,4).
point(10,4).
point(11,4).
point(1,5).
point(3,5).
point(5,5).
point(7,5).
point(8,5).
point(11,5).
point(1,6).
point(3,6).
point(4,6).
point(5,6).
point(6,6).
point(7,6).
point(8,6).
point(9,6).
point(5,7).
point(6,7).
point(7,7).
point(10,7).
point(3,8).
point(4,8).
point(5,8).
point(6,8).
point(9,8).
point(10,8).
point(2,9).
point(3,9).
point(4,9).
point(5,9).
point(6,9).
point(7,9).
point(1,10).
point(2,10).
point(3,10).
point(4,10).
point(5,10).
point(6,10).
point(9,10).
point(11,10).
point(1,11).
point(3,11).
point(6,11).
point(7,11).
point(11,11).
point(12,11).
point(11,12).
point(12,12).
point(2,0).
point(3,0).
point(4,0).
point(13,3).
point(13,4).
point(13,5).
point(11,13).
point(13,13).
point(0,3).
point(0,5).
point(0,0).
point(0,1).
